202124.18,22.94,25.13
214238.75,21.65,23.71
207946.49,22.3,24.43
218593.96,21.21,23.24
206078.87,22.5,24.65
199894.53,23.2,25.41
214767.77,21.59,23.65
205784.62,22.53,24.68
202208.59,22.93,25.12
197437.04,23.49,25.73
200550.05,23.12,25.33
205678.28,22.55,24.7
200072.03,23.18,25.39
196348.36,23.62,25.87
195120.45,23.77,26.03
194605.83,23.83,26.1
188328.93,24.62,26.97
213800.91,21.69,23.76
213971.28,21.67,23.74
221463.75,20.94,22.94
